c Random CNF formula
p cnf 200 46
-110 -198 -136 0
-173 -146 -160 0
174 -183 -149 0
96 196 175 0
-60 -190 161 0
46 -159 -90 0
160 43 -173 0
176 48 -187 0
113 -159 139 0
192 -170 133 0
-87 31 -47 0
-135 69 -91 0
-121 128 168 0
-168 -116 -149 0
47 163 143 0
39 -43 -13 0
-20 135 -76 0
58 138 188 0
-86 -125 -6 0
88 82 162 0
74 -76 64 0
4 158 105 0
-66 160 127 0
97 164 93 0
9 -19 43 0
137 -183 86 0
-126 124 -163 0
103 -195 95 0
-133 20 -179 0
-56 -118 61 0
-189 48 117 0
91 192 198 0
-38 -138 101 0
-88 -4 -198 0
-174 -139 -154 0
120 34 -75 0
-166 11 189 0
153 -200 -112 0
-160 -23 155 0
-97 14 -47 0
55 30 163 0
-78 74 -142 0
-75 -17 -13 0
148 69 73 0
-168 -159 -43 0
-95 -170 67 0
